Running HiGHS 1.12.0 (git hash: n/a): Copyright (c) 2025 HiGHS under MIT licence terms
Set option parallel to "off"
Set option time_limit to 600
Set option log_file to "HiGHS.log"
WARNING: LP matrix packed vector contains 2 |values| in [8.88178e-16, 8.88178e-16] less than or equal to 1e-09: ignored
MIP var-smallemery-m6j6 has 13416 rows; 5608 cols; 850621 nonzeros; 5606 integer variables (5606 binary)
Coefficient ranges:
  Matrix  [3e-02, 1e+04]
  Cost    [1e+00, 1e+00]
  Bound   [1e+00, 1e+00]
  RHS     [6e+00, 1e+03]
Presolving model
10386 rows, 3221 cols, 505398 nonzeros  0s
8281 rows, 3004 cols, 467494 nonzeros  0s
8044 rows, 2863 cols, 445729 nonzeros  5s
Presolve reductions: rows 8044(-5372); columns 2863(-2745); nonzeros 445729(-404892) 

Solving MIP model with:
   8044 rows
   2863 cols (2862 binary, 0 integer, 0 implied int., 1 continuous, 0 domain fixed)
   445729 nonzeros

Src: B => Branching; C => Central rounding; F => Feasibility pump; H => Heuristic;
     I => Shifting; J => Feasibility jump; L => Sub-MIP; P => Empty MIP; R => Randomized rounding;
     S => Solve LP; T => Evaluate node; U => Unbounded; X => User solution; Y => HiGHS solution;
     Z => ZI Round; l => Trivial lower; p => Trivial point; u => Trivial upper; z => Trivial zero

        Nodes      |    B&B Tree     |            Objective Bounds              |  Dynamic Constraints |       Work      
Src  Proc. InQueue |  Leaves   Expl. | BestBound       BestSol              Gap |   Cuts   InLp Confl. | LpIters     Time

 J       0       0         0   0.00%   -inf            4.1875             Large        0      0      0         0     6.4s
         0       0         0   0.00%   -156.0562681    4.1875          3826.72%        0      0      1      1911     7.4s
 C       0       0         0   0.00%   -155.9249142    -97.4375          60.03%      103      5      1      1966     9.7s
 L       0       0         0   0.00%   -155.6088385    -142.9375          8.86%      910     16      1      2233    18.9s
 L       0       0         0   0.00%   -155.6088385    -144.78125         7.48%      910     16      1      3737    21.3s

5.7% inactive integer columns, restarting
Model after restart has 6891 rows, 2631 cols (2630 bin., 0 int., 0 impl., 1 cont., 0 dom.fix.), and 408394 nonzeros

         0       0         0   0.00%   -155.6088385    -144.78125         7.48%        9      0      0      4879    22.4s
         0       0         0   0.00%   -155.6088385    -144.78125         7.48%        9      9      2      6490    23.3s
 L       0       0         0   0.00%   -155.6088385    -145.34375         7.06%        9      9      2      6490    28.6s

2.6% inactive integer columns, restarting
Model after restart has 6560 rows, 2556 cols (2555 bin., 0 int., 0 impl., 1 cont., 0 dom.fix.), and 396411 nonzeros

         0       0         0   0.00%   -155.6088385    -145.34375         7.06%        9      0      0      9652    33.2s
         0       0         0   0.00%   -155.6088385    -145.34375         7.06%        9      9      4     10125    33.5s
 L       0       0         0   0.00%   -155.6088385    -145.90625         6.65%        9      9      4     10125    40.2s
        20       0         1   0.00%   -155.6088385    -145.90625         6.65%       19      9    291     22773    54.6s
        38       3        10   0.00%   -155.6088385    -145.90625         6.65%       68      9    736     26250    59.9s
        58       3        18   0.00%   -155.6088385    -145.90625         6.65%      117      9   1129     29928    65.3s
        81       9        28   0.03%   -155.6088385    -145.90625         6.65%      167      9   1576     33338    70.6s
       122      25        39   0.04%   -155.1926884    -145.90625         6.36%      285     10   2106     40021    79.3s
       151      30        54   0.04%   -155.1926884    -145.90625         6.36%      341     10   2692     43994    84.9s
 L     178      43        66   0.05%   -154.9831929    -145.906251        6.22%      282      9   3157     46918    91.0s
       221      46        82   0.06%   -154.9831929    -145.906251        6.22%      330      9   3685     52282    96.5s
       283      58       110   0.09%   -154.9831929    -145.906251        6.22%      438     10   4373     57209   103.7s

        Nodes      |    B&B Tree     |            Objective Bounds              |  Dynamic Constraints |       Work      
Src  Proc. InQueue |  Leaves   Expl. | BestBound       BestSol              Gap |   Cuts   InLp Confl. | LpIters     Time

 L     307      68       116   0.10%   -154.9831929    -146.15625         6.04%      777     13   4558     58796   108.1s
 L     380      90       140   0.10%   -154.659115     -146.156251        5.82%      983     17   5231     63206   114.9s
       436      92       158   0.10%   -154.659115     -146.156251        5.82%     1029     17   5718     67761   120.1s
       490     112       181   0.10%   -154.659115     -146.156251        5.82%     1116     18   6415     70981   125.1s
       593     125       224   0.10%   -154.659115     -146.156251        5.82%     1181      3   7541     74854   132.2s
       696     137       267   0.11%   -154.659115     -146.156251        5.82%     1310      7   8600     78943   138.3s
       777     154       299   0.11%   -154.659115     -146.156251        5.82%     1353      9   9385     81982   143.4s
 L     841     159       328   1.67%   -154.659115     -146.46875         5.59%     1448     11   7139     83729   148.5s
       952     173       371   1.67%   -154.659115     -146.46875         5.59%     1423      9   8338     89220   155.5s
 L    1044     189       412   1.67%   -154.659115     -146.46875         5.59%     1440     10   9376     90711   159.6s
      1160     200       457   1.67%   -154.659115     -146.46875         5.59%     1472     13   9011     95587   166.6s
      1259     219       497   1.67%   -154.659115     -146.46875         5.59%     1671      9   8305    100248   174.5s
      1356     238       537   1.68%   -154.5804242    -146.46875         5.54%     1627     10   9169    103656   179.6s

Restarting search from the root node
Model after restart has 5960 rows, 2413 cols (2412 bin., 0 int., 0 impl., 1 cont., 0 dom.fix.), and 373627 nonzeros

      1448       0         0   0.00%   -154.5804242    -146.46875         5.54%       10      0      0    105484   183.9s
      1448       0         0   0.00%   -154.5804242    -146.46875         5.54%       10      0      5    106254   184.3s
      1448       0         0   0.00%   -154.5804242    -146.46875         5.54%     1724     17      5    106454   189.4s
      1448       0         0   0.00%   -154.5804242    -146.46875         5.54%     2224     24      5    106756   194.5s

2.6% inactive integer columns, restarting
Model after restart has 5678 rows, 2351 cols (2350 bin., 0 int., 0 impl., 1 cont., 0 dom.fix.), and 363706 nonzeros

      1448       0         0   0.00%   -154.5804242    -146.46875         5.54%        9      0      0    106774   195.6s
      1448       0         0   0.00%   -154.5804242    -146.46875         5.54%        9      9      2    107650   196.0s
      1479       7         8   0.67%   -154.5804242    -146.46875         5.54%       66     11    576    112201   201.0s

        Nodes      |    B&B Tree     |            Objective Bounds              |  Dynamic Constraints |       Work      
Src  Proc. InQueue |  Leaves   Expl. | BestBound       BestSol              Gap |   Cuts   InLp Confl. | LpIters     Time

      1573      18        49   2.38%   -154.5804242    -146.46875         5.54%       93     15   1754    118092   208.1s
      1661      39        80   5.48%   -154.5804242    -146.46875         5.54%      227     20   2784    121299   213.4s
      1759      56       120   5.61%   -154.5804242    -146.46875         5.54%      345     13   3878    124390   219.0s
      1884      69       174   5.64%   -154.5804242    -146.46875         5.54%      512     11   4992    127257   224.2s
      2002      82       227   5.67%   -154.5804242    -146.46875         5.54%      639     18   6180    129760   229.2s
      2101      94       266   5.69%   -154.5804242    -146.46875         5.54%     1044     14   7233    132157   234.3s
      2202     105       311   7.07%   -154.5804242    -146.46875         5.54%     1101     15   8537    136148   239.4s
      2342     123       372   7.18%   -154.5804242    -146.46875         5.54%     1216      6   9759    138624   244.4s
      2473     142       427   7.19%   -154.5804242    -146.46875         5.54%     1322      8   9498    141210   249.5s
      2633     158       497   7.19%   -154.5804242    -146.46875         5.54%     1390      9   9194    143468   254.6s
      2794     170       572   7.21%   -154.5804242    -146.46875         5.54%     1543     19   9270    145724   259.6s
      2948     189       636   7.21%   -154.5804242    -146.46875         5.54%     1721      6   9301    148135   264.6s
      3072     213       684   7.22%   -154.5804242    -146.46875         5.54%     1695     11   7932    151058   270.1s
      3242     236       756   7.24%   -154.5804242    -146.46875         5.54%     1906      9   9362    153583   275.1s

Restarting search from the root node
Model after restart has 5678 rows, 2349 cols (2348 bin., 0 int., 0 impl., 1 cont., 0 dom.fix.), and 363406 nonzeros

      3364       0         0   0.00%   -154.5804242    -146.46875         5.54%       12      0      0    155985   281.1s
      3364       0         0   0.00%   -154.5804242    -146.46875         5.54%       12      1      6    155986   281.2s
      3453      12        34   5.13%   -154.5804242    -146.46875         5.54%      231      7   1153    160208   286.2s
      3613      19       110   9.02%   -154.5804242    -146.46875         5.54%      657      7   2612    162788   291.2s
      3765      34       171  21.32%   -154.5804242    -146.46875         5.54%      829     10   3860    166777   296.9s
      3915      78       224  21.33%   -154.5804242    -146.46875         5.54%     1036      8   5935    170013   301.9s

        Nodes      |    B&B Tree     |            Objective Bounds              |  Dynamic Constraints |       Work      
Src  Proc. InQueue |  Leaves   Expl. | BestBound       BestSol              Gap |   Cuts   InLp Confl. | LpIters     Time

      4097      98       306  21.35%   -154.5804242    -146.46875         5.54%     1263      9   7756    173001   307.0s
      4241     124       364  21.51%   -154.5804242    -146.46875         5.54%     1481     13   9190    175976   312.1s
      4417     147       440  21.60%   -154.5804242    -146.46875         5.54%     1587     13   9152    179186   318.2s
      4574     166       508  21.61%   -154.5804242    -146.46875         5.54%     1636      9   9881    181670   323.3s
      4757     197       586  21.69%   -154.5804242    -146.46875         5.54%     1641      6   8217    184343   328.3s
      4932     206       666  21.72%   -154.5804242    -146.46875         5.54%     1674     13   8428    186868   333.4s
      5077     246       717  21.79%   -154.5804242    -146.46875         5.54%     1609     13   8175    189818   338.4s
      5257     263       793  21.79%   -154.5804242    -146.46875         5.54%     1506     14   9981    192346   343.4s
      5437     278       874  21.79%   -154.5804242    -146.46875         5.54%     1631     13   9518    194702   348.5s
      5588     290       942  21.80%   -154.5804242    -146.46875         5.54%     1836     12   9947    197185   353.5s
      5742     315      1005  21.84%   -154.4624747    -146.46875         5.46%     1776      7   9018    200203   358.8s
      5926     333      1085  21.84%   -154.4624747    -146.46875         5.46%     1814     10   9663    202904   363.9s
      6084     358      1150  21.87%   -154.4624747    -146.46875         5.46%     1819     10   8255    205855   369.2s
      6281     380      1235  21.88%   -154.4624747    -146.46875         5.46%     1767     10   9030    208719   374.5s
      6449     397      1306  22.66%   -154.4624747    -146.46875         5.46%     1950     11   9691    211623   379.5s

Restarting search from the root node
Model after restart has 5307 rows, 2250 cols (2249 bin., 0 int., 0 impl., 1 cont., 0 dom.fix.), and 347720 nonzeros

      6560       0         0   0.00%   -154.4546181    -146.46875         5.45%       19      0      0    213347   386.1s
      6560       0         0   0.00%   -154.4546181    -146.46875         5.45%       19      1      3    213380   386.2s
      6560       0         0   0.00%   -154.4546181    -146.46875         5.45%     2531     23      3    213666   391.3s

5.3% inactive integer columns, restarting
Model after restart has 4708 rows, 2130 cols (2129 bin., 0 int., 0 impl., 1 cont., 0 dom.fix.), and 328405 nonzeros

      6560       0         0   0.00%   -154.4546181    -146.46875         5.45%       10      0      0    213865   395.9s
      6560       0         0   0.00%   -154.4546181    -146.46875         5.45%       10     10      3    214524   396.2s

        Nodes      |    B&B Tree     |            Objective Bounds              |  Dynamic Constraints |       Work      
Src  Proc. InQueue |  Leaves   Expl. | BestBound       BestSol              Gap |   Cuts   InLp Confl. | LpIters     Time

      6569       0         1   0.39%   -154.4546181    -146.46875         5.45%     1141      9    100    217966   402.1s
      6756      16        89   4.55%   -154.4546181    -146.46875         5.45%     1213     14   2561    221941   407.1s
      6907      16       163   5.52%   -154.4546181    -146.46875         5.45%      955      8   4262    224318   412.1s
      7097      35       243   5.62%   -154.4546181    -146.46875         5.45%     1085     10   6351    228351   417.2s
      7327      67       340   5.67%   -154.4546181    -146.46875         5.45%     1294     11   8673    231582   422.4s
      7541      94       431   5.71%   -154.4546181    -146.46875         5.45%     1384     10   8876    234455   427.5s
      7727     119       512   5.73%   -154.4546181    -146.46875         5.45%     1292     23   8840    237270   432.5s
      7860     144       560   5.77%   -154.4546181    -146.46875         5.45%     1092     11   9824    240119   437.6s
      8054     172       644   5.78%   -154.4546181    -146.46875         5.45%     1185      9   9814    243053   442.7s
      8251     200       725   5.79%   -154.4546181    -146.46875         5.45%     1099     15   9979    246245   448.6s
      8473     237       816   5.80%   -154.4546181    -146.46875         5.45%     1084     20   9946    249443   453.6s
      8678     265       905   5.81%   -154.4546181    -146.46875         5.45%     1261      7   9694    252416   458.6s
      8876     301       981   5.82%   -154.4546181    -146.46875         5.45%     1398     14   9073    255514   463.9s
      9091     332      1070   5.84%   -154.4546181    -146.46875         5.45%     1467      9   9423    258508   468.9s
      9286     355      1153   5.84%   -154.4546181    -146.46875         5.45%     1253     12   9331    261444   474.0s
      9493     373      1240   5.85%   -154.4546181    -146.46875         5.45%     1442     12   9866    264337   479.1s
      9671     400      1320   5.87%   -154.4546181    -146.46875         5.45%     1514     20   9540    266830   484.1s
      9850     422      1390   5.87%   -154.4546181    -146.46875         5.45%     1336     24   9512    269220   489.1s
     10044     448      1478   5.96%   -154.4546181    -146.46875         5.45%     1373     21   9506    271871   494.2s
     10245     460      1569   5.96%   -154.4546181    -146.46875         5.45%     1513     15   9897    274899   499.2s

        Nodes      |    B&B Tree     |            Objective Bounds              |  Dynamic Constraints |       Work      
Src  Proc. InQueue |  Leaves   Expl. | BestBound       BestSol              Gap |   Cuts   InLp Confl. | LpIters     Time

     10405     483      1636   5.97%   -154.3968486    -146.46875         5.41%     1722     16   9296    277553   504.4s
     10610     499      1726   5.97%   -154.3968486    -146.46875         5.41%     1594     20   9395    280093   509.4s
     10784     526      1799   5.97%   -154.3968486    -146.46875         5.41%     1625     28   9959    283045   514.8s
     10991     547      1889   5.98%   -154.3968486    -146.46875         5.41%     1686     29   9532    285912   520.2s
     11190     572      1975   6.26%   -154.2391641    -146.46875         5.31%     1492     16   9677    289251   525.3s
     11400     595      2066   6.27%   -154.2391641    -146.46875         5.31%     1450     21   9334    292041   530.3s
     11563     620      2134   6.28%   -154.2391641    -146.46875         5.31%     1432     22   9576    295069   535.3s

Restarting search from the root node
Model after restart has 4687 rows, 2128 cols (2127 bin., 0 int., 0 impl., 1 cont., 0 dom.fix.), and 328063 nonzeros

     11751       0         0   0.00%   -154.2391641    -146.46875         5.31%       18      0      0    297391   540.6s
     11751       0         0   0.00%   -154.2391641    -146.46875         5.31%       18      0      4    297391   540.6s
     11751       0         0   0.00%   -154.2391641    -146.46875         5.31%     2231     20      4    297642   545.7s
     11751       0         0   0.00%   -154.2391641    -146.46875         5.31%     2368     22      4    297916   550.7s
     11818       2        23   0.00%   -154.2391641    -146.46875         5.31%     1214      9    775    301086   555.7s
     11997      37       101   0.01%   -154.2391641    -146.46875         5.31%     1228     24   2645    304325   560.7s
     12152      55       164   0.01%   -154.2391641    -146.46875         5.31%      875     24   4182    306963   565.8s
     12343      76       247   0.03%   -154.2391641    -146.46875         5.31%     1229     22   6560    311229   573.0s
     12531     109       328   0.41%   -154.2391641    -146.46875         5.31%     1560     16   9028    314191   578.1s
     12659     127       376   0.42%   -154.2391641    -146.46875         5.31%     1596      8   8217    318689   584.2s
     12765     140       418   0.42%   -154.2391641    -146.46875         5.31%     2108     19   9471    327193   593.4s
     12963     181       497   0.80%   -154.2391641    -146.46875         5.31%     2105      5   7779    331658   599.3s
     13001     195       515   0.80%   -154.2391641    -146.46875         5.31%     2121      5   8263    332226   600.0s

Solving report
  Model             var-smallemery-m6j6
  Status            Time limit reached
  Primal bound      -146.46875
  Dual bound        -154.239164139
  Gap               5.31% (tolerance: 0.01%)
  P-D integral      411.173186655
  Solution status   feasible
                    -146.46875 (objective)
                    0 (bound viol.)
                    4.94049245958e-14 (int. viol.)
                    0 (row viol.)
  Timing            600.01
  Max sub-MIP depth 7
  Nodes             13001
  Repair LPs        0
  LP iterations     332226
                    94695 (strong br.)
                    8928 (separation)
                    35564 (heuristics)
